148
100000
32069
1900
16937
10267
48239
49431
23909
25437
42498
25996
2220
9770
22362
15445
6600
19381
42717
25804
24573
8546
18166
20339
24669
23577
9128
45113
21315
4796
5305
28124
49287
18054
20613
29203
39384
15199
15503
3746
22034
7383
4859
35082
22719
23522
17147
9031
12332
11604
26059
48793
9909
6325
34530
10144
1010
22088
43486
450
22116
12004
42620
2323
4094
6578
46961
13375
33341
10900
44451
40383
9951
33242
16312
36749
3100
1556
11446
34996
40237
15341
6001
15770
26529
29904
14602
16316
12639
11160
19694
39597
7641
26836
258
48808
10185
2488
13272
49962
21199
31868
36289
38184
11568
2706
30283
10399
9623
18
13029
179
12248
1380
1324
20564
47053
11611
1794
5247
48587
2245
6644
41193
18470
44453
20156
4422
43503
46244
16072
15293
8787
41805
9244
46657
1489
48962
10106
2633
1873
12276
29419
3499
35518
27804
10874
21781
16163
9395
